
Gurobi 6.0.4 (linux64) logging started Thu Sep  1 12:38:36 2016

Optimize a model with 12 rows, 31 columns and 60 nonzeros
Coefficient statistics:
  Matrix range    [1e+00, 1e+00]
  Objective range [1e+00, 1e+00]
  Bounds range    [1e+00, 1e+00]
  RHS range       [1e+00, 1e+00]
Found heuristic solution: objective 0
Presolve removed 0 rows and 1 columns
Presolve time: 0.00s
Presolved: 12 rows, 30 columns, 60 nonzeros
Variable types: 0 continuous, 30 integer (30 binary)

Explored 0 nodes (0 simplex iterations) in 0.13 seconds
Thread count was 4 (of 8 available processors)

Optimal solution found (tolerance 1.00e-04)
Best objective 0.000000000000e+00, best bound 0.000000000000e+00, gap 0.0%

Gurobi 6.0.4 (linux64) logging started Thu Sep  1 13:48:35 2016


Gurobi 6.0.4 (linux64) logging started Thu Sep  1 16:12:44 2016

